<?xml version = "1.0" encoding="UTF-8" standalone="yes"?>
<CPLEXSolution version="1.2">
 <header
   problemName="IloCplex"
   solutionName="p0"
   solutionIndex="-1"
   objectiveValue="0"
   solutionTypeValue="3"
   solutionTypeString="primal"
   solutionStatusValue="127"
   solutionStatusString="integer feasible solution"
   solutionMethodString="mip"
   primalFeasible="0"
   dualFeasible="0"
   writeLevel="3"/>
 <quality
   epInt="1.0000000000000001e-05"
   epRHS="9.9999999999999995e-07"
   maxIntInfeas="0"
   maxPrimalInfeas="0"
   maxX="1"
   maxSlack="1"/>
 <variables>
  <variable name="x0_5" index="115" value="1"/>
  <variable name="x1_46" index="256" value="1"/>
  <variable name="x2_91" index="401" value="1"/>
  <variable name="x3_97" index="507" value="1"/>
  <variable name="x4_27" index="537" value="1"/>
  <variable name="x5_90" index="700" value="1"/>
  <variable name="x6_95" index="805" value="1"/>
  <variable name="x7_11" index="821" value="1"/>
  <variable name="x8_63" index="973" value="1"/>
  <variable name="x9_73" index="1083" value="1"/>
  <variable name="x10_15" index="1125" value="1"/>
  <variable name="x11_80" index="1290" value="1"/>
  <variable name="x12_67" index="1377" value="1"/>
  <variable name="x13_71" index="1481" value="1"/>
  <variable name="x14_44" index="1554" value="1"/>
  <variable name="x15_20" index="1630" value="1"/>
  <variable name="x16_76" index="1786" value="1"/>
  <variable name="x17_22" index="1832" value="1"/>
  <variable name="x18_17" index="1927" value="1"/>
  <variable name="x19_56" index="2066" value="1"/>
  <variable name="x20_69" index="2179" value="1"/>
  <variable name="x21_3" index="2213" value="1"/>
  <variable name="x22_55" index="2365" value="1"/>
  <variable name="x23_98" index="2508" value="1"/>
  <variable name="x24_70" index="2580" value="1"/>
  <variable name="x25_7" index="2617" value="1"/>
  <variable name="x26_74" index="2784" value="1"/>
  <variable name="x27_79" index="2889" value="1"/>
  <variable name="x28_39" index="2949" value="1"/>
  <variable name="x29_45" index="3055" value="1"/>
  <variable name="x30_0" index="3110" value="1"/>
  <variable name="x31_51" index="3261" value="1"/>
  <variable name="x32_34" index="3344" value="1"/>
  <variable name="x33_35" index="3445" value="1"/>
  <variable name="x34_82" index="3592" value="1"/>
  <variable name="x35_68" index="3678" value="1"/>
  <variable name="x36_62" index="3772" value="1"/>
  <variable name="x37_41" index="3851" value="1"/>
  <variable name="x38_83" index="3993" value="1"/>
  <variable name="x39_49" index="4059" value="1"/>
  <variable name="x40_72" index="4182" value="1"/>
  <variable name="x41_14" index="4224" value="1"/>
  <variable name="x42_59" index="4369" value="1"/>
  <variable name="x43_28" index="4438" value="1"/>
  <variable name="x44_60" index="4570" value="1"/>
  <variable name="x45_36" index="4646" value="1"/>
  <variable name="x46_33" index="4743" value="1"/>
  <variable name="x47_6" index="4816" value="1"/>
  <variable name="x48_96" index="5006" value="1"/>
  <variable name="x49_13" index="5023" value="1"/>
  <variable name="x50_8" index="5118" value="1"/>
  <variable name="x51_92" index="5302" value="1"/>
  <variable name="x52_42" index="5352" value="1"/>
  <variable name="x53_86" index="5496" value="1"/>
  <variable name="x54_52" index="5562" value="1"/>
  <variable name="x55_66" index="5676" value="1"/>
  <variable name="x56_30" index="5740" value="1"/>
  <variable name="x57_23" index="5833" value="1"/>
  <variable name="x58_88" index="5998" value="1"/>
  <variable name="x59_40" index="6050" value="1"/>
  <variable name="x60_65" index="6175" value="1"/>
  <variable name="x61_47" index="6257" value="1"/>
  <variable name="x62_89" index="6399" value="1"/>
  <variable name="x63_58" index="6468" value="1"/>
  <variable name="x64_38" index="6548" value="1"/>
  <variable name="x65_53" index="6663" value="1"/>
  <variable name="x66_43" index="6753" value="1"/>
  <variable name="x67_1" index="6811" value="1"/>
  <variable name="x68_4" index="6914" value="1"/>
  <variable name="x69_48" index="7058" value="1"/>
  <variable name="x70_84" index="7194" value="1"/>
  <variable name="x71_19" index="7229" value="1"/>
  <variable name="x72_87" index="7397" value="1"/>
  <variable name="x73_32" index="7442" value="1"/>
  <variable name="x74_21" index="7531" value="1"/>
  <variable name="x75_93" index="7703" value="1"/>
  <variable name="x76_16" index="7726" value="1"/>
  <variable name="x77_50" index="7860" value="1"/>
  <variable name="x78_37" index="7947" value="1"/>
  <variable name="x79_61" index="8071" value="1"/>
  <variable name="x80_54" index="8164" value="1"/>
  <variable name="x81_77" index="8287" value="1"/>
  <variable name="x82_64" index="8374" value="1"/>
  <variable name="x83_2" index="8412" value="1"/>
  <variable name="x84_81" index="8591" value="1"/>
  <variable name="x85_10" index="8620" value="1"/>
  <variable name="x86_78" index="8788" value="1"/>
  <variable name="x87_99" index="8909" value="1"/>
  <variable name="x88_24" index="8934" value="1"/>
  <variable name="x89_94" index="9104" value="1"/>
  <variable name="x90_75" index="9185" value="1"/>
  <variable name="x91_31" index="9241" value="1"/>
  <variable name="x92_26" index="9336" value="1"/>
  <variable name="x93_29" index="9439" value="1"/>
  <variable name="x94_85" index="9595" value="1"/>
  <variable name="x95_9" index="9619" value="1"/>
  <variable name="x96_57" index="9767" value="1"/>
  <variable name="x97_18" index="9828" value="1"/>
  <variable name="x98_25" index="9935" value="1"/>
  <variable name="x99_12" index="10022" value="1"/>
  <variable name="u3" index="10113" value="1"/>
  <variable name="u6" index="10116" value="1"/>
  <variable name="u9" index="10119" value="1"/>
 </variables>
</CPLEXSolution>
